interdiction/MCDM/NO_CORR/GEN_FROM_60/14_ITEMS_1000_GEN/K5014W13.KNP.txt
N 14
M 15
LC 14
LC 15
LC 16
LC 17
LC 18
LC 19
LC 20
LC 21
LC 22
LC 23
LC 24
LC 25
LC 26
LC 27
LR 1
LR 2
LR 3
LR 4
LR 5
LR 6
LR 7
LR 8
LR 9
LR 10
LR 11
LR 12
LR 13
LR 14
LR 15
LO -10
LO -489
LO -754
LO -363
LO -118
LO -84
LO -910
LO -276
LO -869
LO -955
LO -139
LO -776
LO -765
LO -278
OS 1
IC 904
IC 806
IC 341
IC 23
IC 759
IC 384
IC 266
IC 358
IC 713
IC 703
IC 679
IC 234
IC 26
IC 711
IB 3454
